p cnf 268 1654
-37 -27 -18 44 24 0
-3 -23 24 2 -33 0
-28 1 22 23 -5 0
-28 39 -31 -13 4 0
-22 -35 44 19 38 0
-3 -36 34 17 6 0
50 -36 12 -29 40 0
-1 -2 -31 -49 29 0
6 -10 16 -35 -31 0
20 -4 -13 -27 37 0
24 22 -21 -6 -20 0
-2 -11 24 -35 -25 0
-8 7 -1 34 -38 0
-28 -42 38 -36 -21 0
12 4 -9 -27 -25 0
17 -43 -23 47 18 0
47 -39 -23 38 13 0
19 -32 -22 46 13 0
-32 -10 -1 -23 -13 0
-2 10 -20 -6 3 0
20 43 -26 -21 -50 0
37 23 -39 24 -45 0
7 49 -38 20 18 0
34 -43 33 -45 -17 0
14 27 -5 -8 -37 0
20 30 4 40 -48 0
8 -12 -33 -50 15 0
-5 28 -43 29 50 0
24 -40 -14 -43 26 0
-23 5 1 18 -19 0
40 -25 -4 43 30 0
-31 27 18 44 12 0
42 -23 16 41 28 0
39 -20 -48 24 -13 0
-28 50 -3 -5 7 0
25 -32 -12 21 -48 0
32 26 16 -36 39 0
-10 -42 49 -23 -38 0
-14 15 34 5 1 0
-37 49 19 34 -30 0
36 -43 -50 48 -4 0
38 9 -45 -24 -50 0
42 44 -10 3 -6 0
-33 -27 -30 22 -5 0
-42 -26 25 -1 43 0
-22 7 48 -1 -27 0
17 -15 12 -3 -27 0
8 34 -19 42 -21 0
1 -12 13 -22 -49 0
-43 25 5 21 31 0
6 -49 5 23 -41 0
12 -20 -38 -26 5 0
-40 -10 31 -26 47 0
-48 27 17 -49 46 0
19 -27 9 12 -39 0
8 47 19 -18 -41 0
-33 14 -17 7 38 0
22 -15 43 42 -14 0
-40 5 -17 -28 -14 0
45 -41 7 31 -22 0
36 4 24 -19 30 0
-34 -33 31 8 -39 0
-18 47 46 6 25 0
-33 43 7 -38 28 0
17 10 -46 24 6 0
-36 8 -21 40 6 0
-3 4 -43 -16 -37 0
1 11 -6 -37 42 0
-43 14 2 5 -32 0
45 21 6 -13 -17 0
-3 48 -19 -46 11 0
6 -4 -8 -34 -45 0
42 33 -32 15 -19 0
20 -3 -37 41 -11 0
22 50 37 -47 -4 0
-33 18 -37 -44 -2 0
-10 -34 -13 -8 -23 0
35 48 1 12 50 0
22 11 -25 -46 39 0
-3 -31 35 -12 -49 0
36 -1 -40 9 -47 0
44 22 4 33 -11 0
39 -47 -26 4 13 0
3 -7 25 -43 -12 0
13 3 -20 39 1 0
40 47 -20 19 10 0
43 13 17 31 8 0
50 -23 -8 -31 46 0
-49 -35 -17 -29 26 0
-31 -12 -14 18 27 0
-5 4 -26 -29 1 0
-27 39 -26 13 38 0
37 21 -5 -34 8 0
-3 50 37 -29 49 0
-29 20 34 -49 21 0
-29 48 2 -33 -41 0
35 -6 28 -21 12 0
34 22 13 -23 6 0
1 -3 -46 -22 -28 0
31 -1 25 33 -40 0
45 -25 28 41 -23 0
12 19 50 -14 4 0
-30 45 50 3 35 0
34 -7 50 4 -30 0
-5 -23 32 46 -21 0
-16 -50 28 20 49 0
2 -23 26 49 -43 0
49 14 36 -27 -24 0
2 32 -43 -34 -30 0
-1 -2 43 -4 24 0
-23 -17 10 14 20 0
2 -10 34 37 -47 0
1 20 40 -30 15 0
-42 -5 -15 -13 11 0
40 44 -4 -12 45 0
-38 37 -46 4 32 0
-16 21 38 -11 39 0
34 -26 13 -36 -32 0
-41 -35 -38 -18 -4 0
-13 -38 -33 41 36 0
25 -30 -8 -6 -50 0
31 -15 -1 -14 26 0
-23 43 -32 -22 4 0
-4 -6 11 -37 -49 0
37 -24 -43 14 18 0
40 -30 -15 -38 -34 0
20 4 -25 -3 -14 0
49 45 30 -48 -34 0
-11 -43 19 -29 38 0
32 -47 3 -43 -31 0
7 -24 -13 5 4 0
7 47 17 -15 -40 0
-15 38 33 -14 -34 0
32 18 -12 -47 29 0
18 -9 -2 -33 7 0
-23 -7 16 37 13 0
-48 34 -2 22 45 0
-2 41 -19 38 -21 0
-13 1 4 2 26 0
39 -31 -41 11 -8 0
40 35 2 -46 49 0
-6 21 20 -8 -49 0
6 -27 -46 -35 11 0
44 -31 24 45 20 0
19 13 -42 -31 6 0
-41 39 28 -11 -17 0
-33 3 17 6 -13 0
-39 30 45 -21 -2 0
-9 26 -17 41 36 0
25 40 5 -36 -22 0
-12 4 -41 -39 -6 0
23 -28 43 -49 -15 0
39 12 21 -41 48 0
-40 -26 35 -18 -37 0
-8 1 -42 -15 44 0
6 -48 -40 -2 23 0
46 -41 -44 -33 -13 0
-2 23 -28 15 -27 0
13 -22 -10 25 -3 0
48 43 -45 3 -11 0
42 25 21 -31 19 0
5 -35 24 3 -7 0
6 26 -8 -16 11 0
-37 8 27 38 10 0
48 -39 42 1 -2 0
-17 -16 -47 36 -39 0
-7 -17 -20 -46 -11 0
-42 47 -13 2 11 0
-41 18 29 43 -12 0
28 11 -47 41 -29 0
29 43 12 -22 -25 0
-37 -21 -26 13 18 0
-29 -16 -11 -41 20 0
-1 -35 -47 42 -45 0
-33 20 41 30 24 0
13 -2 38 33 36 0
-34 -7 25 8 21 0
42 11 -35 6 21 0
-44 1 3 16 -9 0
-7 43 48 41 28 0
23 41 24 21 50 0
42 -7 -36 5 -35 0
-35 28 15 17 -16 0
-24 28 30 16 -37 0
32 -45 31 7 11 0
-49 24 35 -20 -19 0
31 26 8 -21 28 0
-39 2 25 -36 -7 0
-17 25 1 -21 -29 0
-7 14 -20 -18 -16 0
-18 43 -39 11 20 0
22 -26 48 -43 50 0
-12 -4 -48 -32 -11 0
45 -38 -8 -47 -20 0
4 2 37 3 -1 0
47 22 -11 16 -19 0
26 -24 -3 40 -14 0
-13 -16 10 -48 34 0
-39 1 -30 36 -38 0
-6 -40 -15 -47 -12 0
-36 4 -6 -45 15 0
-50 -49 24 28 7 0
28 -18 22 23 43 0
33 6 -46 40 45 0
-44 34 -33 -18 -17 0
30 -8 -29 2 3 0
-14 -9 -49 26 -46 0
-18 -40 34 -25 10 0
-34 40 -37 -18 42 0
-19 -34 12 -30 -6 0
-13 -43 -11 37 29 0
-33 43 -15 -47 -2 0
38 28 -40 -16 -31 0
-9 -36 -7 -31 -35 0
-44 -19 -6 -3 -39 0
46 25 19 45 29 0
-3 -25 44 -34 -33 0
-34 44 25 17 -37 0
-18 35 32 7 12 0
6 35 -20 9 -17 0
48 5 -3 47 45 0
17 -3 49 -35 -8 0
40 15 -3 39 -4 0
23 40 -38 21 7 0
28 22 39 -29 26 0
8 22 43 25 -6 0
22 13 -1 2 24 0
2 -48 8 12 -35 0
-20 6 -44 23 -48 0
13 -9 -3 -43 -24 0
-8 45 -18 -28 33 0
-10 45 -39 27 18 0
13 39 -21 -27 5 0
-28 5 46 -30 -11 0
49 40 -50 4 -20 0
50 15 -17 -41 43 0
-6 -7 2 -42 -36 0
6 -13 -43 -11 -31 0
40 -39 13 6 -50 0
-22 17 -14 -46 -11 0
-14 -10 -44 5 13 0
-44 -5 7 33 22 0
12 -3 -27 6 31 0
-31 -25 -37 -44 35 0
-27 -16 -2 -33 13 0
33 -50 -8 -14 -47 0
-14 25 13 -17 4 0
27 6 47 -12 -25 0
9 4 30 16 48 0
-9 48 -33 -41 -37 0
-6 -7 -34 -47 43 0
-31 27 18 -7 49 0
33 -14 6 -30 50 0
48 6 -12 28 -9 0
-28 46 42 -12 -44 0
-40 -22 49 -6 -24 0
-45 -48 46 14 -40 0
32 -35 -7 -34 -29 0
-14 8 -24 -38 -46 0
-29 -35 -49 -11 21 0
22 -19 -43 -32 -25 0
-28 22 -3 7 5 0
-9 -16 19 -5 -1 0
46 4 34 8 -33 0
-29 9 23 15 -35 0
-47 -44 13 7 -43 0
14 -2 -13 -15 3 0
9 21 -11 -4 -32 0
-42 -47 -6 45 -25 0
-47 50 -26 39 -48 0
-50 -23 -10 28 -30 0
23 -29 -40 25 -18 0
47 9 -4 43 2 0
-10 -50 -11 -19 -37 0
1 -33 34 -19 -38 0
-9 -45 -50 44 28 0
-46 -4 -45 39 1 0
-14 -36 8 -4 -34 0
42 -48 -38 29 18 0
-42 17 -39 12 -48 0
-44 47 -46 -36 27 0
17 8 37 -20 -27 0
-20 43 -5 -44 -22 0
34 16 -26 -47 50 0
49 -46 18 5 12 0
41 25 -16 29 -34 0
41 -6 18 -15 -23 0
23 2 11 -45 41 0
-16 49 -34 22 15 0
-3 42 -15 39 2 0
37 29 30 49 8 0
-39 8 45 -14 17 0
-46 -33 -26 -38 30 0
43 22 35 45 15 0
-8 -22 21 7 -47 0
-50 -16 14 26 -28 0
31 23 -38 18 14 0
42 13 5 -6 -44 0
27 -6 2 8 -1 0
-18 4 -8 -13 -30 0
8 -6 9 -19 -43 0
45 -31 -24 -3 25 0
43 15 41 19 17 0
49 46 -29 -36 -11 0
28 41 -3 15 31 0
29 -39 28 -11 27 0
-40 3 31 -15 -29 0
-17 -10 -44 -11 29 0
21 -17 -38 48 -23 0
10 50 -17 6 -3 0
-43 -24 -26 18 45 0
-23 42 -17 -32 -39 0
10 -33 -20 28 23 0
-9 28 -2 -23 50 0
2 -49 15 19 11 0
-31 -19 18 30 34 0
5 12 -27 45 -9 0
-32 -17 41 -3 -13 0
-35 -48 -37 45 25 0
-8 -14 42 -43 -27 0
3 -48 -22 42 -35 0
-15 13 -22 35 -7 0
20 -24 -12 -30 -22 0
5 31 -43 27 2 0
30 4 -34 1 -44 0
14 -24 -5 -22 -19 0
-43 17 12 -21 -38 0
-30 3 48 -17 -31 0
-38 32 28 -37 -3 0
21 -42 -3 37 30 0
-46 -20 15 -18 -26 0
30 14 39 13 4 0
21 24 -3 -2 26 0
27 -12 26 -25 -35 0
2 -8 12 30 -7 0
27 11 44 5 -34 0
-19 -41 -32 4 2 0
-32 -21 11 35 -34 0
24 2 21 29 -41 0
40 15 -2 -46 -34 0
-34 -23 -6 -42 -5 0
13 -44 37 -48 7 0
50 23 -1 -24 -36 0
47 -20 42 34 49 0
-10 47 2 -24 38 0
-2 50 -25 46 12 0
9 -43 -44 25 49 0
39 15 1 6 14 0
12 -10 11 46 -5 0
-47 -8 28 -20 12 0
45 42 -7 -37 -2 0
6 26 -14 -8 44 0
1 40 -34 25 24 0
43 -24 -16 -32 -3 0
11 37 -7 -14 -16 0
42 14 -39 -27 -13 0
12 -7 -6 24 -47 0
-31 -46 19 -13 18 0
-28 18 49 -23 9 0
-12 28 45 32 14 0
-25 -45 -11 49 9 0
-13 -12 -47 -11 -19 0
34 45 44 -31 -2 0
37 45 -16 -22 -25 0
5 -27 47 42 -28 0
-3 -27 -13 -33 -38 0
-9 -8 24 -50 -43 0
-14 39 1 -40 7 0
-50 19 -2 -33 -12 0
32 28 3 -45 5 0
14 -8 -30 -31 49 0
-45 -15 -3 44 -1 0
-45 36 18 -46 -33 0
-21 13 -2 -43 36 0
-46 -18 -47 41 -35 0
-44 -11 -38 -45 13 0
16 1 14 -49 8 0
-12 -1 -16 7 -49 0
-17 9 35 -4 -3 0
13 18 -36 33 -48 0
21 20 -28 -27 -10 0
-34 31 39 -11 8 0
48 44 41 50 38 0
28 41 8 40 2 0
7 28 36 31 46 0
-11 36 31 -19 43 0
-26 16 41 -10 15 0
46 11 -31 -50 44 0
-50 -41 -23 -48 6 0
-38 -29 -9 -15 50 0
-14 -49 18 -26 17 0
-2 -30 34 42 10 0
-44 -28 37 19 47 0
-49 16 44 -17 -3 0
-26 -1 11 -12 -41 0
13 -18 -1 11 -23 0
39 7 -34 8 -19 0
-2 -3 20 34 -6 0
-10 21 -9 -37 1 0
11 7 17 -33 29 0
30 23 -32 6 -45 0
27 9 -21 48 -31 0
-24 -41 2 -5 -38 0
33 29 13 -35 -40 0
23 -29 -31 43 14 0
1 -37 50 48 23 0
-49 -16 22 -43 -48 0
-47 -21 48 -43 -19 0
7 14 15 -46 -11 0
9 17 -14 45 -16 0
4 36 -18 -42 9 0
36 -16 4 48 -13 0
37 -35 -14 -28 -43 0
-41 -5 10 -26 47 0
-6 -22 -32 24 27 0
38 40 -2 45 44 0
-3 -25 -26 -31 -21 0
-17 -41 23 -15 -49 0
-15 -34 -7 -49 -6 0
7 -6 32 -5 30 0
-2 -24 43 -13 -9 0
-33 39 50 29 -9 0
39 42 -43 45 16 0
47 37 5 -12 11 0
-5 -41 3 15 24 0
-50 26 4 18 -21 0
-4 49 -15 27 -43 0
-14 41 22 21 -47 0
7 18 -46 41 21 0
16 15 -39 22 -10 0
-11 48 31 21 19 0
21 19 -42 -27 20 0
43 11 13 -7 -6 0
-15 37 -34 -45 -25 0
4 28 -7 -43 -17 0
-3 35 -50 -1 -5 0
-37 -1 -38 -4 -13 0
-44 -45 8 -41 -13 0
-8 49 -25 -10 -37 0
41 25 -30 -48 -3 0
-4 6 35 -44 -20 0
39 -25 -34 38 13 0
-33 -34 3 15 -19 0
37 42 14 -31 19 0
-25 -38 23 -5 40 0
-45 -18 16 -4 19 0
37 22 -19 27 5 0
5 -38 -13 -27 49 0
31 21 -44 -14 39 0
50 16 -8 -29 5 0
25 -29 -43 48 -9 0
-8 -40 5 -27 34 0
10 22 -35 26 -34 0
36 3 -32 47 -50 0
40 15 -46 16 36 0
34 5 27 3 47 0
-36 12 -30 14 -41 0
9 -27 34 -35 22 0
5 -36 31 -33 -40 0
2 15 16 -9 20 0
-14 -50 26 -47 41 0
-14 -31 28 -33 17 0
8 -50 -34 13 42 0
-41 31 -18 1 -14 0
-43 -23 4 -10 24 0
14 -2 -9 39 25 0
34 48 -33 -11 30 0
4 -42 36 -30 -29 0
2 41 16 -10 -48 0
-14 11 -36 -3 -33 0
37 43 25 -1 -34 0
-5 42 -40 25 3 0
-46 -23 -1 29 20 0
-33 -49 -11 31 -8 0
-42 -48 28 -5 -39 0
40 11 32 1 22 0
-23 16 21 -20 -1 0
27 28 20 -13 -44 0
43 4 -19 -20 -49 0
-7 -14 18 13 -47 0
47 -49 -13 -32 -45 0
-22 -25 49 -33 -48 0
-22 -14 40 -8 11 0
-38 -29 -19 40 -32 0
-17 15 -24 -46 -41 0
42 -22 28 26 -5 0
8 -47 4 3 -43 0
-40 -28 -32 44 -37 0
14 38 48 -3 42 0
47 -21 -44 -39 -46 0
12 -37 28 -6 -32 0
45 -22 27 41 -47 0
-24 -46 -18 -1 -31 0
32 31 37 -22 45 0
-29 -22 20 -30 -39 0
25 -50 6 -42 -17 0
-46 -21 47 23 37 0
-33 -29 -6 -30 34 0
-13 28 37 -1 -10 0
-33 30 39 -2 27 0
25 27 -40 -9 -24 0
18 -5 7 30 33 0
9 13 11 -23 -25 0
-23 35 -47 31 -15 0
23 -49 -47 40 -1 0
37 -48 33 39 -41 0
18 -44 -40 -20 5 0
-36 27 21 9 -33 0
-20 14 40 -17 42 0
4 16 -35 50 -7 0
-20 13 24 -23 44 0
-3 -42 19 -14 -47 0
43 -11 1 5 49 0
-12 35 -23 34 50 0
-44 -5 -47 -29 42 0
24 -42 -27 11 -47 0
15 43 -9 -16 40 0
-45 -5 3 -6 -30 0
-24 38 -18 -34 -8 0
-18 -20 49 -10 14 0
-16 26 48 47 37 0
29 10 -8 -42 -25 0
5 16 30 10 44 0
16 -36 23 33 22 0
-35 8 -1 -25 -43 0
23 -29 19 28 -16 0
-11 -23 -25 -41 5 0
38 -18 -50 -48 39 0
-18 44 -7 -50 49 0
27 42 -28 43 -24 0
-25 43 29 45 47 0
-5 19 4 -7 -17 0
-19 -30 6 -16 -41 0
27 30 -8 -16 -23 0
4 -30 -13 -31 45 0
34 26 49 -29 -18 0
-36 4 34 50 33 0
-44 24 -50 -20 -18 0
-15 3 50 10 46 0
-42 -17 -36 10 11 0
-35 -5 44 -25 40 0
-45 6 49 -24 -2 0
8 -43 33 15 -13 0
5 -14 7 -34 46 0
-17 1 38 -41 22 0
-15 19 -25 -49 50 0
1 20 -25 7 -8 0
-3 -31 -40 -9 25 0
-14 -45 42 10 31 0
50 20 28 -13 39 0
26 -11 50 -7 33 0
-31 48 23 37 -17 0
12 -22 31 -39 -27 0
29 -20 -18 2 35 0
-3 47 -8 5 -27 0
-19 -38 -49 -40 24 0
1 40 -33 17 -31 0
-39 47 23 -11 2 0
-20 34 28 -15 19 0
-42 -46 -33 30 -43 0
7 -45 -43 28 9 0
40 -23 -49 37 -43 0
10 -8 -23 32 -41 0
-41 12 15 -48 44 0
-10 40 -24 -47 -29 0
44 -16 -40 -30 18 0
4 19 3 -14 17 0
-40 -37 28 25 30 0
7 -49 20 -13 47 0
22 -3 49 30 47 0
6 25 48 -35 20 0
1 -32 -8 49 39 0
-31 6 24 2 30 0
-17 -39 -31 -45 7 0
24 -27 -42 13 -2 0
-44 43 6 -20 -46 0
28 -3 -38 -19 -18 0
-50 32 17 -47 6 0
-21 39 1 -33 -49 0
38 -7 -21 -23 27 0
-30 -35 -17 -39 28 0
4 -42 -8 -9 5 0
35 16 3 -13 19 0
45 -31 -18 -12 -47 0
-31 -9 42 -2 -3 0
-20 -49 -28 -17 21 0
16 14 -31 32 -10 0
-13 -24 19 26 -3 0
5 -27 43 48 -17 0
-20 37 -18 42 48 0
33 -5 42 -43 49 0
36 -6 -46 -19 5 0
6 48 -41 -38 -3 0
4 -21 -18 -19 33 0
-31 36 43 -24 18 0
-1 -18 26 -11 9 0
-49 24 17 22 9 0
-7 31 11 -21 -40 0
36 -10 11 2 27 0
-29 -14 -41 4 -24 0
47 -7 -10 -5 17 0
32 17 35 -14 11 0
22 38 47 -42 -46 0
36 -20 24 -1 -42 0
29 47 7 -11 -24 0
-4 50 -46 -37 -36 0
-45 36 14 -34 26 0
-1 -4 22 -33 13 0
-42 -8 -23 -9 -28 0
21 34 -16 -29 -26 0
11 19 12 34 41 0
-20 23 -39 10 7 0
29 5 36 -14 39 0
19 9 -13 -48 -49 0
-30 3 10 -2 -13 0
46 -1 -44 41 -23 0
22 25 9 -40 -43 0
-13 22 -30 -12 -39 0
-16 -9 -46 42 45 0
-15 -5 -35 -18 42 0
48 -10 23 32 12 0
-4 -27 -21 -45 -30 0
-15 30 -40 46 13 0
10 -31 13 25 -24 0
38 40 -1 34 -15 0
-32 13 2 -38 21 0
16 2 15 47 -17 0
-6 28 -20 -37 21 0
27 -13 36 41 -35 0
29 -14 18 -12 -41 0
-31 24 36 -4 -37 0
34 -8 17 -14 32 0
-7 -31 -46 -32 -39 0
-17 23 21 -41 -49 0
-7 19 30 28 -9 0
23 13 16 -12 7 0
-37 45 31 20 -9 0
42 23 -10 37 -45 0
20 -31 -49 39 4 0
-49 -10 -34 2 -41 0
41 48 46 -45 -32 0
-19 23 -48 -35 32 0
-21 41 -49 34 27 0
2 -29 -5 22 -37 0
40 50 -46 41 39 0
-44 -22 -16 -47 -34 0
-13 18 -34 -44 -43 0
9 8 -24 -25 22 0
16 38 -34 20 -2 0
37 -4 -47 45 -23 0
-1 -36 44 25 40 0
-35 -14 -50 -41 -43 0
-44 -18 -2 -29 -27 0
7 -28 -6 38 48 0
50 -37 -17 7 -10 0
-17 49 19 -31 -36 0
28 36 30 -42 -23 0
32 -46 12 -5 -20 0
12 -45 -15 -48 8 0
-11 19 -23 -3 -44 0
-24 -1 -31 -14 -18 0
-40 -8 43 32 48 0
-25 46 -45 31 49 0
-2 31 -14 -36 -46 0
-39 -35 -18 17 10 0
45 -35 -28 11 30 0
17 -19 -20 38 -43 0
22 19 -25 -44 37 0
-50 44 -12 49 -9 0
-38 -5 -28 18 24 0
2 45 -39 15 37 0
-22 23 -6 -15 36 0
39 -10 13 -5 -50 0
-41 -37 34 44 -21 0
-44 -26 -6 33 -3 0
36 -44 -48 -46 -25 0
-27 -21 36 -43 -18 0
42 -25 23 12 -2 0
21 -24 -10 -11 31 0
14 -8 -42 32 -35 0
-14 -23 -32 1 41 0
-12 -30 35 4 42 0
-26 -25 40 23 -35 0
-28 7 47 36 -1 0
-18 13 -5 2 -39 0
21 50 18 -36 -4 0
40 4 -2 -10 -24 0
8 27 -21 -9 26 0
34 43 23 -47 5 0
-2 5 42 -16 33 0
42 18 35 4 38 0
49 -28 -10 46 18 0
34 38 -32 5 -11 0
25 -10 -2 -50 -40 0
33 -31 30 28 -11 0
-45 -40 -36 47 -2 0
23 13 -30 -36 22 0
49 -42 -5 46 6 0
-28 -30 -42 7 -36 0
45 -24 32 -9 38 0
44 34 10 24 -3 0
12 -28 -19 18 -16 0
-50 -12 -5 -27 48 0
30 43 -22 47 1 0
-47 -42 48 -16 18 0
12 1 -45 -41 17 0
-43 33 5 -8 -7 0
-46 -25 -6 34 -24 0
14 12 -22 41 -45 0
2 -3 40 -38 -27 0
41 17 13 8 19 0
33 -11 27 -12 -26 0
-24 -22 -37 -3 17 0
39 -11 -2 20 27 0
26 2 -11 5 -42 0
48 -24 -22 9 -49 0
-41 23 -16 21 -19 0
24 -43 32 44 -29 0
-13 32 24 5 2 0
21 -44 22 -38 26 0
36 -23 33 48 22 0
28 -41 24 -17 -3 0
28 -34 10 -41 3 0
-41 -35 -36 -20 38 0
14 30 32 -21 47 0
32 49 22 35 -12 0
7 36 38 29 18 0
28 -27 -49 7 10 0
-4 10 -37 50 -6 0
-25 16 -1 20 -24 0
-48 18 17 -19 31 0
-50 -8 -11 37 -6 0
-40 -12 47 28 -3 0
-16 9 49 30 -42 0
-35 38 -4 -19 14 0
-37 -49 26 12 -42 0
-24 27 -32 -43 -20 0
38 -46 -30 33 -49 0
19 -2 -12 38 -48 0
-43 14 -35 -39 -6 0
28 -10 -7 31 39 0
-21 -32 33 1 -11 0
-2 -29 -38 -45 9 0
-20 27 -41 5 28 0
47 -15 19 -3 4 0
-32 30 -16 48 17 0
-12 5 -4 -36 26 0
30 -43 19 34 -25 0
20 41 -28 -1 -49 0
-8 14 -39 -5 -26 0
1 3 51 0
-1 3 -51 0
1 -3 -51 0
-1 -3 51 0
6 -7 52 0
-6 -7 -52 0
6 7 -52 0
-6 7 52 0
-9 13 53 0
9 13 -53 0
-9 -13 -53 0
9 -13 53 0
-17 -18 54 0
17 -18 -54 0
-17 18 -54 0
17 18 54 0
-22 -25 55 0
22 -25 -55 0
-22 25 -55 0
22 25 55 0
-26 30 56 0
26 30 -56 0
-26 -30 -56 0
26 -30 56 0
-32 -36 57 0
32 -36 -57 0
-32 36 -57 0
32 36 57 0
-37 38 58 0
37 38 -58 0
-37 -38 -58 0
37 -38 58 0
40 -42 59 0
-40 -42 -59 0
40 42 -59 0
-40 42 59 0
-45 46 60 0
45 46 -60 0
-45 -46 -60 0
45 -46 60 0
-47 -48 61 0
47 -48 -61 0
-47 48 -61 0
47 48 61 0
-49 -50 62 0
49 -50 -62 0
-49 50 -62 0
49 50 62 0
51 -52 63 0
-51 -52 -63 0
51 52 -63 0
-51 52 63 0
53 -54 64 0
-53 -54 -64 0
53 54 -64 0
-53 54 64 0
55 -56 65 0
-55 -56 -65 0
55 56 -65 0
-55 56 65 0
57 -58 66 0
-57 -58 -66 0
57 58 -66 0
-57 58 66 0
59 -60 67 0
-59 -60 -67 0
59 60 -67 0
-59 60 67 0
61 -62 68 0
-61 -62 -68 0
61 62 -68 0
-61 62 68 0
63 -64 69 0
-63 -64 -69 0
63 64 -69 0
-63 64 69 0
65 -66 70 0
-65 -66 -70 0
65 66 -70 0
-65 66 70 0
67 -68 71 0
-67 -68 -71 0
67 68 -71 0
-67 68 71 0
-69 -70 71 0
69 -70 -71 0
-69 70 -71 0
69 70 71 0
-1 3 72 0
1 3 -72 0
-1 -3 -72 0
1 -3 72 0
5 -8 73 0
-5 -8 -73 0
5 8 -73 0
-5 8 73 0
9 -12 74 0
-9 -12 -74 0
9 12 -74 0
-9 12 74 0
14 -16 75 0
-14 -16 -75 0
14 16 -75 0
-14 16 75 0
-19 20 76 0
19 20 -76 0
-19 -20 -76 0
19 -20 76 0
21 22 77 0
-21 22 -77 0
21 -22 -77 0
-21 -22 77 0
23 24 78 0
-23 24 -78 0
23 -24 -78 0
-23 -24 78 0
28 29 79 0
-28 29 -79 0
28 -29 -79 0
-28 -29 79 0
-35 -36 80 0
35 -36 -80 0
-35 36 -80 0
35 36 80 0
37 40 81 0
-37 40 -81 0
37 -40 -81 0
-37 -40 81 0
44 46 82 0
-44 46 -82 0
44 -46 -82 0
-44 -46 82 0
47 48 83 0
-47 48 -83 0
47 -48 -83 0
-47 -48 83 0
-49 -50 84 0
49 -50 -84 0
-49 50 -84 0
49 50 84 0
72 -73 85 0
-72 -73 -85 0
72 73 -85 0
-72 73 85 0
74 -75 86 0
-74 -75 -86 0
74 75 -86 0
-74 75 86 0
76 -77 87 0
-76 -77 -87 0
76 77 -87 0
-76 77 87 0
78 -79 88 0
-78 -79 -88 0
78 79 -88 0
-78 79 88 0
80 -81 89 0
-80 -81 -89 0
80 81 -89 0
-80 81 89 0
82 -83 90 0
-82 -83 -90 0
82 83 -90 0
-82 83 90 0
84 -85 91 0
-84 -85 -91 0
84 85 -91 0
-84 85 91 0
86 -87 92 0
-86 -87 -92 0
86 87 -92 0
-86 87 92 0
88 -89 93 0
-88 -89 -93 0
88 89 -93 0
-88 89 93 0
90 -91 94 0
-90 -91 -94 0
90 91 -94 0
-90 91 94 0
92 -93 95 0
-92 -93 -95 0
92 93 -95 0
-92 93 95 0
94 95 0
-94 -95 0
-1 -4 96 0
1 -4 -96 0
-1 4 -96 0
1 4 96 0
6 -7 97 0
-6 -7 -97 0
6 7 -97 0
-6 7 97 0
-8 -9 98 0
8 -9 -98 0
-8 9 -98 0
8 9 98 0
-13 -14 99 0
13 -14 -99 0
-13 14 -99 0
13 14 99 0
-16 -17 100 0
16 -17 -100 0
-16 17 -100 0
16 17 100 0
-21 22 101 0
21 22 -101 0
-21 -22 -101 0
21 -22 101 0
30 -32 102 0
-30 -32 -102 0
30 32 -102 0
-30 32 102 0
-33 -36 103 0
33 -36 -103 0
-33 36 -103 0
33 36 103 0
41 -43 104 0
-41 -43 -104 0
41 43 -104 0
-41 43 104 0
-47 -48 105 0
47 -48 -105 0
-47 48 -105 0
47 48 105 0
95 -96 106 0
-95 -96 -106 0
95 96 -106 0
-95 96 106 0
97 -98 107 0
-97 -98 -107 0
97 98 -107 0
-97 98 107 0
99 -100 108 0
-99 -100 -108 0
99 100 -108 0
-99 100 108 0
101 -102 109 0
-101 -102 -109 0
101 102 -109 0
-101 102 109 0
103 -104 110 0
-103 -104 -110 0
103 104 -110 0
-103 104 110 0
105 -106 111 0
-105 -106 -111 0
105 106 -111 0
-105 106 111 0
107 -108 112 0
-107 -108 -112 0
107 108 -112 0
-107 108 112 0
109 -110 113 0
-109 -110 -113 0
109 110 -113 0
-109 110 113 0
-111 -112 113 0
111 -112 -113 0
-111 112 -113 0
111 112 113 0
-2 4 114 0
2 4 -114 0
-2 -4 -114 0
2 -4 114 0
5 -9 115 0
-5 -9 -115 0
5 9 -115 0
-5 9 115 0
11 14 116 0
-11 14 -116 0
11 -14 -116 0
-11 -14 116 0
-17 18 117 0
17 18 -117 0
-17 -18 -117 0
17 -18 117 0
-20 21 118 0
20 21 -118 0
-20 -21 -118 0
20 -21 118 0
24 25 119 0
-24 25 -119 0
24 -25 -119 0
-24 -25 119 0
27 -28 120 0
-27 -28 -120 0
27 28 -120 0
-27 28 120 0
30 -31 121 0
-30 -31 -121 0
30 31 -121 0
-30 31 121 0
32 -33 122 0
-32 -33 -122 0
32 33 -122 0
-32 33 122 0
-34 35 123 0
34 35 -123 0
-34 -35 -123 0
34 -35 123 0
40 41 124 0
-40 41 -124 0
40 -41 -124 0
-40 -41 124 0
-44 -46 125 0
44 -46 -125 0
-44 46 -125 0
44 46 125 0
-47 49 126 0
47 49 -126 0
-47 -49 -126 0
47 -49 126 0
113 -114 127 0
-113 -114 -127 0
113 114 -127 0
-113 114 127 0
115 -116 128 0
-115 -116 -128 0
115 116 -128 0
-115 116 128 0
117 -118 129 0
-117 -118 -129 0
117 118 -129 0
-117 118 129 0
119 -120 130 0
-119 -120 -130 0
119 120 -130 0
-119 120 130 0
121 -122 131 0
-121 -122 -131 0
121 122 -131 0
-121 122 131 0
123 -124 132 0
-123 -124 -132 0
123 124 -132 0
-123 124 132 0
125 -126 133 0
-125 -126 -133 0
125 126 -133 0
-125 126 133 0
127 -128 134 0
-127 -128 -134 0
127 128 -134 0
-127 128 134 0
129 -130 135 0
-129 -130 -135 0
129 130 -135 0
-129 130 135 0
131 -132 136 0
-131 -132 -136 0
131 132 -136 0
-131 132 136 0
133 -134 137 0
-133 -134 -137 0
133 134 -137 0
-133 134 137 0
135 -136 138 0
-135 -136 -138 0
135 136 -138 0
-135 136 138 0
137 138 0
-137 -138 0
1 -8 139 0
-1 -8 -139 0
1 8 -139 0
-1 8 139 0
9 -12 140 0
-9 -12 -140 0
9 12 -140 0
-9 12 140 0
13 -17 141 0
-13 -17 -141 0
13 17 -141 0
-13 17 141 0
20 23 142 0
-20 23 -142 0
20 -23 -142 0
-20 -23 142 0
-24 25 143 0
24 25 -143 0
-24 -25 -143 0
24 -25 143 0
27 31 144 0
-27 31 -144 0
27 -31 -144 0
-27 -31 144 0
33 -34 145 0
-33 -34 -145 0
33 34 -145 0
-33 34 145 0
-37 -38 146 0
37 -38 -146 0
-37 38 -146 0
37 38 146 0
-39 42 147 0
39 42 -147 0
-39 -42 -147 0
39 -42 147 0
43 46 148 0
-43 46 -148 0
43 -46 -148 0
-43 -46 148 0
47 -49 149 0
-47 -49 -149 0
47 49 -149 0
-47 49 149 0
139 -140 150 0
-139 -140 -150 0
139 140 -150 0
-139 140 150 0
141 -142 151 0
-141 -142 -151 0
141 142 -151 0
-141 142 151 0
143 -144 152 0
-143 -144 -152 0
143 144 -152 0
-143 144 152 0
145 -146 153 0
-145 -146 -153 0
145 146 -153 0
-145 146 153 0
147 -148 154 0
-147 -148 -154 0
147 148 -154 0
-147 148 154 0
149 -150 155 0
-149 -150 -155 0
149 150 -155 0
-149 150 155 0
151 -152 156 0
-151 -152 -156 0
151 152 -156 0
-151 152 156 0
153 -154 157 0
-153 -154 -157 0
153 154 -157 0
-153 154 157 0
-155 -156 157 0
155 -156 -157 0
-155 156 -157 0
155 156 157 0
-2 -3 158 0
2 -3 -158 0
-2 3 -158 0
2 3 158 0
4 5 159 0
-4 5 -159 0
4 -5 -159 0
-4 -5 159 0
8 10 160 0
-8 10 -160 0
8 -10 -160 0
-8 -10 160 0
-11 12 161 0
11 12 -161 0
-11 -12 -161 0
11 -12 161 0
-13 -14 162 0
13 -14 -162 0
-13 14 -162 0
13 14 162 0
-17 18 163 0
17 18 -163 0
-17 -18 -163 0
17 -18 163 0
-20 -23 164 0
20 -23 -164 0
-20 23 -164 0
20 23 164 0
-24 -25 165 0
24 -25 -165 0
-24 25 -165 0
24 25 165 0
26 -27 166 0
-26 -27 -166 0
26 27 -166 0
-26 27 166 0
29 31 167 0
-29 31 -167 0
29 -31 -167 0
-29 -31 167 0
-32 -33 168 0
32 -33 -168 0
-32 33 -168 0
32 33 168 0
-35 -37 169 0
35 -37 -169 0
-35 37 -169 0
35 37 169 0
-40 45 170 0
40 45 -170 0
-40 -45 -170 0
40 -45 170 0
46 50 171 0
-46 50 -171 0
46 -50 -171 0
-46 -50 171 0
158 -159 172 0
-158 -159 -172 0
158 159 -172 0
-158 159 172 0
160 -161 173 0
-160 -161 -173 0
160 161 -173 0
-160 161 173 0
162 -163 174 0
-162 -163 -174 0
162 163 -174 0
-162 163 174 0
164 -165 175 0
-164 -165 -175 0
164 165 -175 0
-164 165 175 0
166 -167 176 0
-166 -167 -176 0
166 167 -176 0
-166 167 176 0
168 -169 177 0
-168 -169 -177 0
168 169 -177 0
-168 169 177 0
170 -171 178 0
-170 -171 -178 0
170 171 -178 0
-170 171 178 0
172 -173 179 0
-172 -173 -179 0
172 173 -179 0
-172 173 179 0
174 -175 180 0
-174 -175 -180 0
174 175 -180 0
-174 175 180 0
176 -177 181 0
-176 -177 -181 0
176 177 -181 0
-176 177 181 0
178 -179 182 0
-178 -179 -182 0
178 179 -182 0
-178 179 182 0
180 -181 183 0
-180 -181 -183 0
180 181 -183 0
-180 181 183 0
182 183 0
-182 -183 0
-1 -2 184 0
1 -2 -184 0
-1 2 -184 0
1 2 184 0
4 -5 185 0
-4 -5 -185 0
4 5 -185 0
-4 5 185 0
-6 10 186 0
6 10 -186 0
-6 -10 -186 0
6 -10 186 0
-14 15 187 0
14 15 -187 0
-14 -15 -187 0
14 -15 187 0
-16 22 188 0
16 22 -188 0
-16 -22 -188 0
16 -22 188 0
-23 -24 189 0
23 -24 -189 0
-23 24 -189 0
23 24 189 0
-29 30 190 0
29 30 -190 0
-29 -30 -190 0
29 -30 190 0
-31 -35 191 0
31 -35 -191 0
-31 35 -191 0
31 35 191 0
37 38 192 0
-37 38 -192 0
37 -38 -192 0
-37 -38 192 0
42 -43 193 0
-42 -43 -193 0
42 43 -193 0
-42 43 193 0
46 49 194 0
-46 49 -194 0
46 -49 -194 0
-46 -49 194 0
183 -184 195 0
-183 -184 -195 0
183 184 -195 0
-183 184 195 0
185 -186 196 0
-185 -186 -196 0
185 186 -196 0
-185 186 196 0
187 -188 197 0
-187 -188 -197 0
187 188 -197 0
-187 188 197 0
189 -190 198 0
-189 -190 -198 0
189 190 -198 0
-189 190 198 0
191 -192 199 0
-191 -192 -199 0
191 192 -199 0
-191 192 199 0
193 -194 200 0
-193 -194 -200 0
193 194 -200 0
-193 194 200 0
195 -196 201 0
-195 -196 -201 0
195 196 -201 0
-195 196 201 0
197 -198 202 0
-197 -198 -202 0
197 198 -202 0
-197 198 202 0
199 -200 203 0
-199 -200 -203 0
199 200 -203 0
-199 200 203 0
-201 -202 203 0
201 -202 -203 0
-201 202 -203 0
201 202 203 0
3 6 204 0
-3 6 -204 0
3 -6 -204 0
-3 -6 204 0
-8 -9 205 0
8 -9 -205 0
-8 9 -205 0
8 9 205 0
11 -12 206 0
-11 -12 -206 0
11 12 -206 0
-11 12 206 0
13 -14 207 0
-13 -14 -207 0
13 14 -207 0
-13 14 207 0
15 -17 208 0
-15 -17 -208 0
15 17 -208 0
-15 17 208 0
18 22 209 0
-18 22 -209 0
18 -22 -209 0
-18 -22 209 0
-23 24 210 0
23 24 -210 0
-23 -24 -210 0
23 -24 210 0
25 26 211 0
-25 26 -211 0
25 -26 -211 0
-25 -26 211 0
-29 -34 212 0
29 -34 -212 0
-29 34 -212 0
29 34 212 0
-35 39 213 0
35 39 -213 0
-35 -39 -213 0
35 -39 213 0
40 -43 214 0
-40 -43 -214 0
40 43 -214 0
-40 43 214 0
-46 -47 215 0
46 -47 -215 0
-46 47 -215 0
46 47 215 0
204 -205 216 0
-204 -205 -216 0
204 205 -216 0
-204 205 216 0
206 -207 217 0
-206 -207 -217 0
206 207 -217 0
-206 207 217 0
208 -209 218 0
-208 -209 -218 0
208 209 -218 0
-208 209 218 0
210 -211 219 0
-210 -211 -219 0
210 211 -219 0
-210 211 219 0
212 -213 220 0
-212 -213 -220 0
212 213 -220 0
-212 213 220 0
214 -215 221 0
-214 -215 -221 0
214 215 -221 0
-214 215 221 0
216 -217 222 0
-216 -217 -222 0
216 217 -222 0
-216 217 222 0
218 -219 223 0
-218 -219 -223 0
218 219 -223 0
-218 219 223 0
220 -221 224 0
-220 -221 -224 0
220 221 -224 0
-220 221 224 0
-222 -223 224 0
222 -223 -224 0
-222 223 -224 0
222 223 224 0
1 5 225 0
-1 5 -225 0
1 -5 -225 0
-1 -5 225 0
-8 -10 226 0
8 -10 -226 0
-8 10 -226 0
8 10 226 0
-11 15 227 0
11 15 -227 0
-11 -15 -227 0
11 -15 227 0
-16 -20 228 0
16 -20 -228 0
-16 20 -228 0
16 20 228 0
22 -23 229 0
-22 -23 -229 0
22 23 -229 0
-22 23 229 0
24 -25 230 0
-24 -25 -230 0
24 25 -230 0
-24 25 230 0
-29 30 231 0
29 30 -231 0
-29 -30 -231 0
29 -30 231 0
32 33 232 0
-32 33 -232 0
32 -33 -232 0
-32 -33 232 0
36 -37 233 0
-36 -37 -233 0
36 37 -233 0
-36 37 233 0
-38 -39 234 0
38 -39 -234 0
-38 39 -234 0
38 39 234 0
-40 44 235 0
40 44 -235 0
-40 -44 -235 0
40 -44 235 0
-46 -48 236 0
46 -48 -236 0
-46 48 -236 0
46 48 236 0
225 -226 237 0
-225 -226 -237 0
225 226 -237 0
-225 226 237 0
227 -228 238 0
-227 -228 -238 0
227 228 -238 0
-227 228 238 0
229 -230 239 0
-229 -230 -239 0
229 230 -239 0
-229 230 239 0
231 -232 240 0
-231 -232 -240 0
231 232 -240 0
-231 232 240 0
233 -234 241 0
-233 -234 -241 0
233 234 -241 0
-233 234 241 0
235 -236 242 0
-235 -236 -242 0
235 236 -242 0
-235 236 242 0
237 -238 243 0
-237 -238 -243 0
237 238 -243 0
-237 238 243 0
239 -240 244 0
-239 -240 -244 0
239 240 -244 0
-239 240 244 0
241 -242 245 0
-241 -242 -245 0
241 242 -245 0
-241 242 245 0
-243 -244 245 0
243 -244 -245 0
-243 244 -245 0
243 244 245 0
1 -5 246 0
-1 -5 -246 0
1 5 -246 0
-1 5 246 0
7 -9 247 0
-7 -9 -247 0
7 9 -247 0
-7 9 247 0
-12 14 248 0
12 14 -248 0
-12 -14 -248 0
12 -14 248 0
15 -17 249 0
-15 -17 -249 0
15 17 -249 0
-15 17 249 0
20 22 250 0
-20 22 -250 0
20 -22 -250 0
-20 -22 250 0
-25 -26 251 0
25 -26 -251 0
-25 26 -251 0
25 26 251 0
-32 -33 252 0
32 -33 -252 0
-32 33 -252 0
32 33 252 0
35 36 253 0
-35 36 -253 0
35 -36 -253 0
-35 -36 253 0
37 38 254 0
-37 38 -254 0
37 -38 -254 0
-37 -38 254 0
-40 41 255 0
40 41 -255 0
-40 -41 -255 0
40 -41 255 0
42 -44 256 0
-42 -44 -256 0
42 44 -256 0
-42 44 256 0
-45 47 257 0
45 47 -257 0
-45 -47 -257 0
45 -47 257 0
245 -246 258 0
-245 -246 -258 0
245 246 -258 0
-245 246 258 0
247 -248 259 0
-247 -248 -259 0
247 248 -259 0
-247 248 259 0
249 -250 260 0
-249 -250 -260 0
249 250 -260 0
-249 250 260 0
251 -252 261 0
-251 -252 -261 0
251 252 -261 0
-251 252 261 0
253 -254 262 0
-253 -254 -262 0
253 254 -262 0
-253 254 262 0
255 -256 263 0
-255 -256 -263 0
255 256 -263 0
-255 256 263 0
257 -258 264 0
-257 -258 -264 0
257 258 -264 0
-257 258 264 0
259 -260 265 0
-259 -260 -265 0
259 260 -265 0
-259 260 265 0
261 -262 266 0
-261 -262 -266 0
261 262 -266 0
-261 262 266 0
263 -264 267 0
-263 -264 -267 0
263 264 -267 0
-263 264 267 0
265 -266 268 0
-265 -266 -268 0
265 266 -268 0
-265 266 268 0
267 268 0
-267 -268 0
